sat
(
(define-fun H () String "")
(define-fun K () String "")
(define-fun I () String "")
(define-fun G () String "aabaaaabbb")
(define-fun L () String "")
(define-fun N () String "")
(define-fun O () String "")
(define-fun M () String "")
(define-fun P () String "aabaaaabbbaabaabbbaa")
)
